QPLIB_2823
LCQ
minimize
390 # number of variables
386 # number of constraints
0.0 # default value for linear coefficients in objective
1 # number of non-default linear coefficients in objective
125 1.0
0.0 # objective constant
377 # number of quadratic terms in all constraints
104 1 1 -2.0
105 1651076121 225 2.0
106 1667396200 1 2.0
107 1651076196 49 2.0
108 1932407863 1 2.0
109 1919361136 1 2.0
110 540090467 1 2.0
111 50 1 2.0
112 1 1 2.0
113 1 1 2.0
114 1 1 2.0
115 50 1 2.0
116 1 1 2.0
117 1651076122 24458017 2.0
118 1852403556 1 2.0
119 1768711012 34 2.0
120 775173731 1 2.0
121 1763733364 -1643770999 -2.0
122 824209265 32758 -2.0
123 12321 -1643770999 -2.0
124 32758 1 -2.0
125 305 1 -2.0
126 1 1 -2.0
127 113 50 -2.0
128 1 1 -2.0
129 1651076122 -1667681695 2.0
130 1852403556 32758 2.0
131 1768711012 1 2.0
132 775173731 1 2.0
133 1763733364 1 2.0
134 824209265 1 2.0
135 12321 1 2.0
136 1 1 2.0
137 24453697 1 2.0
138 1 1 2.0
139 24457249 50 2.0
140 1 1 2.0
141 1651076121 1 2.0
142 1668836972 1 2.0
143 1651076196 1 2.0
144 1932407863 1 2.0
145 1852514416 1 2.0
146 540090489 1 2.0
147 49 1 2.0
148 10 1 2.0
149 1 1 2.0
150 1 1 2.0
151 50 1 2.0
152 1027 1 2.0
153 1651076121 24457729 2.0
154 1685022573 1 2.0
155 1651076196 34 2.0
156 1932407863 1 2.0
157 1818576901 1735139440 2.0
158 540090480 32625 2.0
159 49 -1643771015 2.0
160 32758 1 2.0
161 33 1 2.0
162 1 1 2.0
163 50 50 2.0
164 1 1 2.0
165 1651076122 1651076121 2.0
166 1852403556 1685022573 2.0
167 1768711012 1651076196 2.0
168 1932407863 775173731 2.0
169 1735139440 1646292852 2.0
170 824209008 540090480 2.0
171 12321 49 2.0
172 1 1 2.0
173 1 1 2.0
174 1 1 2.0
175 50 50 2.0
176 1 1 2.0
177 1651076122 1651076121 2.0
178 1852403556 1685352564 2.0
179 1768711012 1651076196 2.0
180 1932407863 775173731 2.0
181 1886593136 1663070068 2.0
182 824206179 540090477 2.0
183 12321 49 2.0
184 1 1 2.0
185 1 1 2.0
186 1 1 2.0
187 50 50 2.0
188 1 1 2.0
189 1651076122 1651076121 2.0
190 1852403556 1683974509 2.0
191 1768711012 1651076196 2.0
192 1932407863 775173731 2.0
193 1768693872 1646292852 2.0
194 824209008 540090464 2.0
195 12321 49 2.0
196 1 1 2.0
197 24444929 1 2.0
198 1 1 2.0
199 50 50 2.0
200 1 1 2.0
201 1651076122 1651076121 2.0
202 1852403556 1668248429 2.0
203 1768711012 1651076196 2.0
204 1932407863 775173731 2.0
205 1936466032 1663070068 2.0
206 824206179 540090480 2.0
207 12321 49 2.0
208 1 1 2.0
209 193 1 2.0
210 1 1 2.0
211 50 50 2.0
212 1 1 2.0
213 1651076122 1651076121 2.0
214 1852403556 1668049262 2.0
215 1768711012 1651076196 2.0
216 1932407863 775173731 2.0
217 1768759408 1663070068 2.0
218 824210800 540156013 2.0
219 49 -1643827167 2.0
220 32758 1 2.0
221 1 1 2.0
222 1 1 2.0
223 50 50 2.0
224 1 1 2.0
225 1651076122 1651076121 2.0
226 1852403556 1668049262 2.0
227 1768711012 1651076196 2.0
228 1932407863 775173731 2.0
229 1768759408 1763733364 2.0
230 824209265 540156013 2.0
231 12321 49 2.0
232 1 1 2.0
233 1 1 2.0
234 1 1 2.0
235 50 50 2.0
236 1 1 2.0
237 1651076122 1651076121 2.0
238 1852403556 1668049262 2.0
239 1768711012 1651076196 2.0
240 1932407863 775173731 2.0
241 1864396660 1768759408 2.0
242 824205172 540156013 2.0
243 12321 49 2.0
244 1 1 2.0
245 1 1 2.0
246 1 1 2.0
247 50 50 2.0
248 1 1 2.0
249 1651076122 1651076121 2.0
250 1852403556 1667986286 2.0
251 1768711012 1651076196 2.0
252 1932407863 775173731 2.0
253 1936531568 1931505524 2.0
254 824209508 540156012 2.0
255 50 -1643761375 2.0
256 32758 1 2.0
257 385 1 -2.0
258 1 1 -2.0
259 50 50 -2.0
260 1 1 -2.0
261 1651076122 1651076121 -2.0
262 1852403556 1684959076 -2.0
263 1768711012 1651076196 -2.0
264 1932407863 775173731 -2.0
265 1868767344 1864396660 -2.0
266 824205172 540090479 -2.0
267 12321 50 -2.0
268 1 1 -2.0
269 24457713 1 -2.0
270 1 1 -2.0
271 50 50 -2.0
272 1 1 -2.0
273 1651076122 1651076121 -2.0
274 1852403556 1684959076 -2.0
275 1768711012 1651076196 -2.0
276 1932407863 775173731 -2.0
277 1868767344 1864396660 -2.0
278 824209508 540090479 -2.0
279 12577 -1643744718 -2.0
280 32758 1 -2.0
281 481 1 -2.0
282 1 1 -2.0
283 50 50 -2.0
284 1 1 -2.0
285 1651076122 1651076121 -2.0
286 1852403556 1681157988 -2.0
287 1768711012 1651076196 -2.0
288 1932407863 775173731 -2.0
289 1868767344 1864396660 -2.0
290 824210792 540090421 -2.0
291 12577 2097 -2.0
292 1 1 -2.0
293 24476561 1 -2.0
294 1 1 -2.0
295 50 50 -2.0
296 1 1 -2.0
297 1651076122 1651076121 -2.0
298 1852403556 1684959076 -2.0
299 1768711012 1651076196 -2.0
300 1932407863 775173731 -2.0
301 1868767344 1864396660 -2.0
302 824208238 540090479 -2.0
303 12321 50 -2.0
304 1 1 -2.0
305 1 -1643770887 -2.0
306 32758 1 -2.0
307 50 50 -2.0
308 1 1 -2.0
309 1651076122 1651076121 -2.0
310 1852403556 1684305508 -2.0
311 1768711012 1651076196 -2.0
312 1932407863 775173731 -2.0
313 1986207856 1864396660 -2.0
314 824209524 540090469 -2.0
315 24459313 12321 -2.0
316 1 1 -2.0
317 24476577 1 -2.0
318 1 1 -2.0
319 50 50 -2.0
320 1 1 -2.0
321 1651076122 1651076122 -2.0
322 1852403556 1852403556 -2.0
323 1768711012 1768711012 -2.0
324 775173731 775173731 -2.0
325 1864396660 1663070068 -2.0
326 824210800 824209529 -2.0
327 24457249 12321 -2.0
328 1 1 -2.0
329 24478737 1 -2.0
330 1 1 -2.0
331 50 34 -2.0
332 1 1 -2.0
333 1651076121 -1657931583 -2.0
334 1667462257 32758 -2.0
335 1651076196 24439713 -2.0
336 1932407863 1 -2.0
337 1953505392 1 -2.0
338 540156004 1 -2.0
339 49 34 -2.0
340 1 1 -2.0
341 -2147483648 1 -2.0
342 -2147483648 1 -2.0
343 50 1 -2.0
344 1 1 -2.0
345 1651076121 1 -2.0
346 1667462257 1 -2.0
347 1651076196 1570 -2.0
348 1932407863 1 -2.0
349 1953505392 1 -2.0
350 540156004 1 -2.0
351 49 3 -2.0
352 3 1 -2.0
353 3 1 2.0
353 3 1 -4.0
353 3 1 2.0
353 3 1 -4.0
353 3 1 2.0
353 3 1 2.0
354 3 1 2.0
354 3 1 -4.0
354 3 1 2.0
354 3 1 -4.0
354 3 1 2.0
354 3 1 2.0
355 50 3 2.0
355 50 3 -4.0
355 50 3 2.0
355 50 3 -4.0
355 50 3 2.0
355 50 3 2.0
356 3 1 2.0
356 3 1 -4.0
356 3 1 2.0
356 3 1 -4.0
356 3 1 2.0
356 3 1 2.0
357 1651076121 3 2.0
357 1651076121 3 -4.0
357 1651076121 3 2.0
357 1651076121 3 -4.0
357 1651076121 3 2.0
357 1651076121 3 2.0
358 1668051310 3 2.0
358 1668051310 3 -4.0
358 1668051310 3 2.0
358 1668051310 3 -4.0
358 1668051310 3 2.0
358 1668051310 3 2.0
359 1651076196 3 2.0
359 1651076196 3 -4.0
359 1651076196 3 2.0
359 1651076196 3 -4.0
359 1651076196 3 2.0
359 1651076196 3 2.0
360 1932407863 3 2.0
360 1932407863 3 -4.0
360 1932407863 3 2.0
360 1932407863 3 -4.0
360 1932407863 3 2.0
360 1932407863 3 2.0
361 1902977136 3 2.0
361 1902977136 3 -4.0
361 1902977136 3 2.0
361 1902977136 3 -4.0
361 1902977136 3 2.0
361 1902977136 3 2.0
362 540156013 3 2.0
362 540156013 3 -4.0
362 540156013 3 2.0
362 540156013 3 -4.0
362 540156013 3 2.0
362 540156013 3 2.0
363 49 3 2.0
363 49 3 -4.0
363 49 3 2.0
363 49 3 -4.0
363 49 3 2.0
363 49 3 2.0
364 3 1 2.0
364 3 1 -4.0
364 3 1 2.0
364 3 1 -4.0
364 3 1 2.0
364 3 1 2.0
365 3 1 2.0
365 3 1 -4.0
365 3 1 2.0
365 3 1 -4.0
365 3 1 2.0
365 3 1 2.0
366 3 1 2.0
366 3 1 -4.0
366 3 1 2.0
366 3 1 -4.0
366 3 1 2.0
366 3 1 2.0
367 50 3 2.0
367 50 3 -4.0
367 50 3 2.0
367 50 3 -4.0
367 50 3 2.0
367 50 3 2.0
368 3 1 2.0
368 3 1 2.0
369 1651076121 3 2.0
369 1651076121 3 2.0
370 1684956020 3 2.0
370 1684956020 3 2.0
371 1651076196 3 2.0
371 1651076196 3 2.0
372 1932407863 3 2.0
372 1932407863 3 2.0
373 1668489328 3 2.0
373 1668489328 3 2.0
374 540090479 3 2.0
374 540090479 3 2.0
375 49 3 2.0
375 49 3 2.0
376 3 1 2.0
376 3 1 2.0
377 3 1 2.0
377 3 1 2.0
378 3 1 2.0
378 3 1 2.0
379 50 1 2.0
379 50 1 2.0
380 1 1 2.0
380 1 1 2.0
381 1651076122 1 2.0
381 1651076122 1 2.0
382 1852403556 1 2.0
382 1852403556 1 2.0
383 1768711012 1 2.0
383 1768711012 1 2.0
384 775173731 1 2.0
384 775173731 1 2.0
385 1931505524 1 2.0
385 1931505524 1 2.0
386 824209508 1 2.0
386 824209508 1 2.0
747 # number of linear terms in all constraints
1 125 1.0
1 264 -1.0
2 265 1.0
2 266 -1.0
3 267 1.0
3 268 -1.0
4 266 -1.0
4 269 1.0
5 268 -1.0
5 270 1.0
6 266 -1.0
6 271 1.0
7 268 -1.0
7 272 1.0
8 266 -1.0
8 273 1.0
9 268 -1.0
9 274 1.0
10 266 -1.0
10 275 1.0
11 268 -1.0
11 276 1.0
12 266 -1.0
12 277 1.0
13 268 -1.0
13 278 1.0
14 266 -1.0
14 279 1.0
15 268 -1.0
15 280 1.0
16 266 -1.0
16 281 1.0
17 268 -1.0
17 282 1.0
18 266 -1.0
18 283 1.0
19 268 -1.0
19 284 1.0
20 266 -1.0
20 285 1.0
21 268 -1.0
21 286 1.0
22 266 -1.0
22 287 1.0
23 268 -1.0
23 288 1.0
24 266 -1.0
24 289 1.0
25 268 -1.0
25 290 1.0
26 266 -1.0
26 291 1.0
27 268 -1.0
27 292 1.0
28 266 -1.0
28 293 1.0
29 268 -1.0
29 294 1.0
30 279 1.0
30 281 -1.0
30 295 1.0
31 280 1.0
31 282 -1.0
31 296 1.0
32 281 1.0
32 283 -1.0
32 297 1.0
33 282 1.0
33 284 -1.0
33 298 1.0
34 283 1.0
34 285 -1.0
34 299 1.0
35 284 1.0
35 286 -1.0
35 300 1.0
36 279 -1.0
36 285 2.0
36 301 1.0
36 302 -1.0
37 280 -1.0
37 286 2.0
37 303 1.0
37 304 -1.0
38 287 1.0
38 289 -1.0
38 305 1.0
39 288 1.0
39 290 -1.0
39 306 1.0
40 289 1.0
40 291 -1.0
40 307 1.0
41 290 1.0
41 292 -1.0
41 308 1.0
42 291 1.0
42 293 -1.0
42 309 1.0
43 292 1.0
43 294 -1.0
43 310 1.0
44 287 -1.0
44 293 2.0
44 311 1.0
44 312 -1.0
45 288 -1.0
45 294 2.0
45 313 1.0
45 314 -1.0
46 295 1.0
46 299 1.0
47 296 1.0
47 300 1.0
48 297 1.0
48 301 1.0
49 298 1.0
49 303 1.0
50 305 1.0
50 309 1.0
51 306 1.0
51 310 1.0
52 307 1.0
52 311 1.0
53 308 1.0
53 313 1.0
54 315 -1.0
54 316 1.0
55 317 1.0
55 318 1.0
56 319 -1.0
56 320 1.0
57 321 -1.0
57 322 1.0
58 323 -1.0
58 324 1.0
59 325 -1.0
59 326 1.0
60 327 -1.0
60 328 1.0
61 329 -1.0
61 330 1.0
62 331 -1.0
62 332 1.0
63 333 -1.0
63 334 1.0
64 335 -1.0
64 336 1.0
65 337 -1.0
65 338 1.0
66 339 -1.0
66 340 1.0
67 341 -1.0
67 342 1.0
68 343 1.0
68 344 1.0
69 345 1.0
69 346 1.0
70 347 1.0
70 348 1.0
71 349 1.0
71 350 1.0
72 351 1.0
72 352 1.0
73 353 1.0
73 354 1.0
74 355 1.0
74 356 1.0
75 357 1.0
75 358 1.0
76 359 1.0
76 360 1.0
77 361 1.0
77 362 1.0
78 363 1.0
78 364 1.0
79 365 1.0
79 366 1.0
80 320 1.2
80 367 1.0
81 344 1.2
81 368 1.0
82 322 0.6
82 369 1.0
83 346 0.6
83 370 1.0
84 324 0.8
84 371 1.0
85 348 0.8
85 372 1.0
86 326 1.7
86 373 1.0
87 350 1.7
87 374 1.0
88 328 1.3
88 375 1.0
89 352 1.3
89 376 1.0
90 330 0.5
90 377 1.0
91 354 0.5
91 378 1.0
92 332 1.2
92 379 1.0
93 356 1.2
93 380 1.0
94 334 0.6
94 381 1.0
95 358 0.6
95 382 1.0
96 336 0.8
96 383 1.0
97 360 0.8
97 384 1.0
98 338 1.7
98 385 1.0
99 362 1.7
99 386 1.0
100 340 1.3
100 387 1.0
101 364 1.3
101 388 1.0
102 342 0.5
102 389 1.0
103 366 0.5
103 390 1.0
104 264 1.0
105 126 1.0
105 127 1.0
105 279 -1.0
106 128 1.0
106 129 1.0
106 280 -1.0
107 126 1.0
107 130 1.0
107 281 -1.0
108 128 1.0
108 131 1.0
108 282 -1.0
109 126 1.0
109 132 1.0
109 283 -1.0
110 128 1.0
110 133 1.0
110 284 -1.0
111 126 1.0
111 134 1.0
111 285 -1.0
112 128 1.0
112 135 1.0
112 286 -1.0
113 126 1.0
113 136 1.0
113 287 -1.0
114 128 1.0
114 137 1.0
114 288 -1.0
115 126 1.0
115 138 1.0
115 289 -1.0
116 128 1.0
116 139 1.0
116 290 -1.0
117 126 1.0
117 140 1.0
117 291 -1.0
118 128 1.0
118 141 1.0
118 292 -1.0
119 126 1.0
119 142 1.0
119 293 -1.0
120 128 1.0
120 143 1.0
120 294 -1.0
121 127 1.0
122 129 1.0
123 130 1.0
124 131 1.0
125 132 1.0
126 133 1.0
127 134 1.0
128 135 1.0
129 136 1.0
130 137 1.0
131 138 1.0
132 139 1.0
133 140 1.0
134 141 1.0
135 142 1.0
136 143 1.0
137 144 1.0
137 145 1.0
137 279 -1.0
138 146 1.0
138 147 1.0
138 280 -1.0
139 144 1.0
139 148 1.0
139 281 -1.0
140 146 1.0
140 149 1.0
140 282 -1.0
141 144 1.0
141 150 1.0
141 283 -1.0
142 146 1.0
142 151 1.0
142 284 -1.0
143 144 1.0
143 152 1.0
143 285 -1.0
144 146 1.0
144 153 1.0
144 286 -1.0
145 154 1.0
145 155 1.0
145 279 -1.0
146 156 1.0
146 157 1.0
146 280 -1.0
147 154 1.0
147 158 1.0
147 281 -1.0
148 156 1.0
148 159 1.0
148 282 -1.0
149 154 1.0
149 160 1.0
149 283 -1.0
150 156 1.0
150 161 1.0
150 284 -1.0
151 154 1.0
151 162 1.0
151 285 -1.0
152 156 1.0
152 163 1.0
152 286 -1.0
153 164 1.0
153 165 1.0
153 279 -1.0
154 166 1.0
154 167 1.0
154 280 -1.0
155 164 1.0
155 168 1.0
155 281 -1.0
156 166 1.0
156 169 1.0
156 282 -1.0
157 164 1.0
157 170 1.0
157 283 -1.0
158 166 1.0
158 171 1.0
158 284 -1.0
159 164 1.0
159 172 1.0
159 285 -1.0
160 166 1.0
160 173 1.0
160 286 -1.0
161 174 1.0
161 175 1.0
161 279 -1.0
162 176 1.0
162 177 1.0
162 280 -1.0
163 174 1.0
163 178 1.0
163 281 -1.0
164 176 1.0
164 179 1.0
164 282 -1.0
165 174 1.0
165 180 1.0
165 283 -1.0
166 176 1.0
166 181 1.0
166 284 -1.0
167 174 1.0
167 182 1.0
167 285 -1.0
168 176 1.0
168 183 1.0
168 286 -1.0
169 184 1.0
169 185 1.0
169 279 -1.0
170 186 1.0
170 187 1.0
170 280 -1.0
171 184 1.0
171 188 1.0
171 281 -1.0
172 186 1.0
172 189 1.0
172 282 -1.0
173 184 1.0
173 190 1.0
173 283 -1.0
174 186 1.0
174 191 1.0
174 284 -1.0
175 184 1.0
175 192 1.0
175 285 -1.0
176 186 1.0
176 193 1.0
176 286 -1.0
177 194 1.0
177 195 1.0
177 279 -1.0
178 196 1.0
178 197 1.0
178 280 -1.0
179 194 1.0
179 198 1.0
179 281 -1.0
180 196 1.0
180 199 1.0
180 282 -1.0
181 194 1.0
181 200 1.0
181 283 -1.0
182 196 1.0
182 201 1.0
182 284 -1.0
183 194 1.0
183 202 1.0
183 285 -1.0
184 196 1.0
184 203 1.0
184 286 -1.0
185 204 1.0
185 205 1.0
185 287 -1.0
186 206 1.0
186 207 1.0
186 288 -1.0
187 204 1.0
187 208 1.0
187 289 -1.0
188 206 1.0
188 209 1.0
188 290 -1.0
189 204 1.0
189 210 1.0
189 291 -1.0
190 206 1.0
190 211 1.0
190 292 -1.0
191 204 1.0
191 212 1.0
191 293 -1.0
192 206 1.0
192 213 1.0
192 294 -1.0
193 214 1.0
193 215 1.0
193 287 -1.0
194 216 1.0
194 217 1.0
194 288 -1.0
195 214 1.0
195 218 1.0
195 289 -1.0
196 216 1.0
196 219 1.0
196 290 -1.0
197 214 1.0
197 220 1.0
197 291 -1.0
198 216 1.0
198 221 1.0
198 292 -1.0
199 214 1.0
199 222 1.0
199 293 -1.0
200 216 1.0
200 223 1.0
200 294 -1.0
201 224 1.0
201 225 1.0
201 287 -1.0
202 226 1.0
202 227 1.0
202 288 -1.0
203 224 1.0
203 228 1.0
203 289 -1.0
204 226 1.0
204 229 1.0
204 290 -1.0
205 224 1.0
205 230 1.0
205 291 -1.0
206 226 1.0
206 231 1.0
206 292 -1.0
207 224 1.0
207 232 1.0
207 293 -1.0
208 226 1.0
208 233 1.0
208 294 -1.0
209 234 1.0
209 235 1.0
209 287 -1.0
210 236 1.0
210 237 1.0
210 288 -1.0
211 234 1.0
211 238 1.0
211 289 -1.0
212 236 1.0
212 239 1.0
212 290 -1.0
213 234 1.0
213 240 1.0
213 291 -1.0
214 236 1.0
214 241 1.0
214 292 -1.0
215 234 1.0
215 242 1.0
215 293 -1.0
216 236 1.0
216 243 1.0
216 294 -1.0
217 244 1.0
217 245 1.0
217 287 -1.0
218 246 1.0
218 247 1.0
218 288 -1.0
219 244 1.0
219 248 1.0
219 289 -1.0
220 246 1.0
220 249 1.0
220 290 -1.0
221 244 1.0
221 250 1.0
221 291 -1.0
222 246 1.0
222 251 1.0
222 292 -1.0
223 244 1.0
223 252 1.0
223 293 -1.0
224 246 1.0
224 253 1.0
224 294 -1.0
225 254 1.0
225 255 1.0
225 287 -1.0
226 256 1.0
226 257 1.0
226 288 -1.0
227 254 1.0
227 258 1.0
227 289 -1.0
228 256 1.0
228 259 1.0
228 290 -1.0
229 254 1.0
229 260 1.0
229 291 -1.0
230 256 1.0
230 261 1.0
230 292 -1.0
231 254 1.0
231 262 1.0
231 293 -1.0
232 256 1.0
232 263 1.0
232 294 -1.0
233 144 1.0
233 265 -1.0
233 367 1.0
234 146 1.0
234 267 -1.0
234 368 1.0
235 154 1.0
235 269 -1.0
235 369 1.0
236 156 1.0
236 270 -1.0
236 370 1.0
237 164 1.0
237 271 -1.0
237 371 1.0
238 166 1.0
238 272 -1.0
238 372 1.0
239 174 1.0
239 273 -1.0
239 373 1.0
240 176 1.0
240 274 -1.0
240 374 1.0
241 184 1.0
241 275 -1.0
241 375 1.0
242 186 1.0
242 276 -1.0
242 376 1.0
243 194 1.0
243 277 -1.0
243 377 1.0
244 196 1.0
244 278 -1.0
244 378 1.0
245 204 1.0
245 265 -1.0
245 379 1.0
246 206 1.0
246 267 -1.0
246 380 1.0
247 214 1.0
247 269 -1.0
247 381 1.0
248 216 1.0
248 270 -1.0
248 382 1.0
249 224 1.0
249 271 -1.0
249 383 1.0
250 226 1.0
250 272 -1.0
250 384 1.0
251 234 1.0
251 273 -1.0
251 385 1.0
252 236 1.0
252 274 -1.0
252 386 1.0
253 244 1.0
253 275 -1.0
253 387 1.0
254 246 1.0
254 276 -1.0
254 388 1.0
255 254 1.0
255 277 -1.0
255 389 1.0
256 256 1.0
256 278 -1.0
256 390 1.0
257 145 1.0
258 147 1.0
259 148 1.0
260 149 1.0
261 150 1.0
262 151 1.0
263 152 1.0
264 153 1.0
265 155 1.0
266 157 1.0
267 158 1.0
268 159 1.0
269 160 1.0
270 161 1.0
271 162 1.0
272 163 1.0
273 165 1.0
274 167 1.0
275 168 1.0
276 169 1.0
277 170 1.0
278 171 1.0
279 172 1.0
280 173 1.0
281 175 1.0
282 177 1.0
283 178 1.0
284 179 1.0
285 180 1.0
286 181 1.0
287 182 1.0
288 183 1.0
289 185 1.0
290 187 1.0
291 188 1.0
292 189 1.0
293 190 1.0
294 191 1.0
295 192 1.0
296 193 1.0
297 195 1.0
298 197 1.0
299 198 1.0
300 199 1.0
301 200 1.0
302 201 1.0
303 202 1.0
304 203 1.0
305 205 1.0
306 207 1.0
307 208 1.0
308 209 1.0
309 210 1.0
310 211 1.0
311 212 1.0
312 213 1.0
313 215 1.0
314 217 1.0
315 218 1.0
316 219 1.0
317 220 1.0
318 221 1.0
319 222 1.0
320 223 1.0
321 225 1.0
322 227 1.0
323 228 1.0
324 229 1.0
325 230 1.0
326 231 1.0
327 232 1.0
328 233 1.0
329 235 1.0
330 237 1.0
331 238 1.0
332 239 1.0
333 240 1.0
334 241 1.0
335 242 1.0
336 243 1.0
337 245 1.0
338 247 1.0
339 248 1.0
340 249 1.0
341 250 1.0
342 251 1.0
343 252 1.0
344 253 1.0
345 255 1.0
346 257 1.0
347 258 1.0
348 259 1.0
349 260 1.0
350 261 1.0
351 262 1.0
352 263 1.0
1.79769313486232E+308 # value for infinity
0.0 # default left-hand-side value
61 # number of non-default left-hand-sides
1 -24.23937859
2 -1.79769313486232E+308
3 -1.79769313486232E+308
4 -1.79769313486232E+308
5 -1.79769313486232E+308
6 -1.79769313486232E+308
7 -1.79769313486232E+308
8 -1.79769313486232E+308
9 -1.79769313486232E+308
10 -1.79769313486232E+308
11 -1.79769313486232E+308
12 -1.79769313486232E+308
13 -1.79769313486232E+308
14 -1.79769313486232E+308
15 -1.79769313486232E+308
16 -1.79769313486232E+308
17 -1.79769313486232E+308
18 -1.79769313486232E+308
19 -1.79769313486232E+308
20 -1.79769313486232E+308
21 -1.79769313486232E+308
22 -1.79769313486232E+308
23 -1.79769313486232E+308
24 -1.79769313486232E+308
25 -1.79769313486232E+308
26 -1.79769313486232E+308
27 -1.79769313486232E+308
28 -1.79769313486232E+308
29 -1.79769313486232E+308
353 3.24
354 4.0
355 8.41
356 6.25
357 2.89
358 1.96
359 5.29
360 3.61
361 1.21
362 6.25
363 4.41
364 1.69
365 9.0
366 4.84
367 3.24
368 0.25
369 1.0
370 0.64
371 1.0
372 1.0
373 1.0
374 1.0
375 1.0
376 1.0
377 1.0
378 1.0
379 1.0
380 1.0
381 1.0
382 1.0
383 1.0
384 1.0
0.0 # default right-hand-side value
45 # number of non-default right-hand-sides
1 -24.23937859
2 -1.2
3 -1.2
4 -0.6
5 -0.6
6 -0.8
7 -0.8
8 -1.7
9 -1.7
10 -1.3
11 -1.3
12 -0.5
13 -0.5
353 1.79769313486232E+308
354 1.79769313486232E+308
355 1.79769313486232E+308
356 1.79769313486232E+308
357 1.79769313486232E+308
358 1.79769313486232E+308
359 1.79769313486232E+308
360 1.79769313486232E+308
361 1.79769313486232E+308
362 1.79769313486232E+308
363 1.79769313486232E+308
364 1.79769313486232E+308
365 1.79769313486232E+308
366 1.79769313486232E+308
367 1.79769313486232E+308
368 0.25
369 1.0
370 0.64
371 1.0
372 1.0
373 1.0
374 1.0
375 1.0
376 1.0
377 1.0
378 1.0
379 1.0
380 1.0
381 1.0
382 1.0
383 1.0
384 1.0
-9.848857802 # default variable lower bound value
202 # number of non-default variable lower bounds
1 0.0
2 0.0
3 0.0
4 0.0
5 0.0
6 0.0
7 0.0
8 0.0
17 0.0
18 0.0
19 0.0
20 0.0
21 0.0
22 0.0
23 0.0
24 0.0
25 0.0
26 0.0
27 0.0
28 0.0
29 0.0
30 0.0
31 0.0
32 0.0
33 0.0
34 0.0
35 0.0
36 0.0
37 0.0
38 0.0
39 0.0
40 0.0
41 0.0
42 0.0
43 0.0
44 0.0
45 0.0
46 0.0
47 0.0
48 0.0
49 0.0
50 0.0
51 0.0
52 0.0
53 0.0
54 0.0
55 0.0
56 0.0
57 0.0
58 0.0
59 0.0
60 0.0
61 0.0
62 0.0
63 0.0
64 0.0
125 0.0
126 0.0
127 -1.79769313486232E+308
128 0.0
129 -1.79769313486232E+308
130 -1.79769313486232E+308
131 -1.79769313486232E+308
132 -1.79769313486232E+308
133 -1.79769313486232E+308
134 -1.79769313486232E+308
135 -1.79769313486232E+308
136 -1.79769313486232E+308
137 -1.79769313486232E+308
138 -1.79769313486232E+308
139 -1.79769313486232E+308
140 -1.79769313486232E+308
141 -1.79769313486232E+308
142 -1.79769313486232E+308
143 -1.79769313486232E+308
144 0.0
146 0.0
154 0.0
156 0.0
164 0.0
166 0.0
174 0.0
176 0.0
184 0.0
186 0.0
194 0.0
196 0.0
204 0.0
206 0.0
214 0.0
216 0.0
224 0.0
226 0.0
234 0.0
236 0.0
244 0.0
246 0.0
254 0.0
256 0.0
264 2.89
265 1.2
266 0.0
267 1.2
268 0.0
269 0.6
270 0.6
271 0.8
272 0.8
273 1.7
274 1.7
275 1.3
276 1.3
277 0.5
278 0.5
279 0.0
280 0.0
281 0.0
282 0.0
283 0.0
284 0.0
285 0.0
286 0.0
287 0.0
288 0.0
289 0.0
290 0.0
291 0.0
292 0.0
293 0.0
294 0.0
295 -0.8
296 -0.5
297 -0.8
298 -0.5
299 -0.8
300 -0.5
301 -0.8
302 0.0
303 -0.5
304 0.0
305 -1.0
306 -1.0
307 -1.0
308 -1.0
309 -1.0
310 -1.0
311 -1.0
312 0.0
313 -1.0
314 0.0
315 -1.0
316 -1.0
317 -1.0
318 -1.0
319 -1.0
320 -1.0
321 -1.0
322 -1.0
323 -1.0
324 -1.0
325 -1.0
326 -1.0
327 -1.0
328 -1.0
329 -1.0
330 -1.0
331 -1.0
332 -1.0
333 -1.0
334 -1.0
335 -1.0
336 -1.0
337 -1.0
338 -1.0
339 -1.0
340 -1.0
341 -1.0
342 -1.0
343 -1.0
344 -1.0
345 -1.0
346 -1.0
347 -1.0
348 -1.0
349 -1.0
350 -1.0
351 -1.0
352 -1.0
353 -1.0
354 -1.0
355 -1.0
356 -1.0
357 -1.0
358 -1.0
359 -1.0
360 -1.0
361 -1.0
362 -1.0
363 -1.0
364 -1.0
365 -1.0
366 -1.0
9.848857802 # default variable upper bound value
130 # number of non-default variable upper bounds
125 36.0
126 9.0
128 4.0
144 9.0
146 4.0
154 9.0
156 4.0
164 9.0
166 4.0
174 9.0
176 4.0
184 9.0
186 4.0
194 9.0
196 4.0
204 9.0
206 4.0
214 9.0
216 4.0
224 9.0
226 4.0
234 9.0
236 4.0
244 9.0
246 4.0
254 9.0
256 4.0
264 36.0
265 4.5
266 9.0
267 2.0
268 4.0
269 8.4
270 3.4
271 8.2
272 3.2
273 7.3
274 2.3
275 7.7
276 2.7
277 8.5
278 3.5
279 9.0
280 4.0
281 9.0
282 4.0
283 9.0
284 4.0
285 9.0
286 4.0
287 9.0
288 4.0
289 9.0
290 4.0
291 9.0
292 4.0
293 9.0
294 4.0
295 0.8
296 0.5
297 0.8
298 0.5
299 0.8
300 0.5
301 0.8
302 9.0
303 0.5
304 4.0
305 1.0
306 1.0
307 1.0
308 1.0
309 1.0
310 1.0
311 1.0
312 9.0
313 1.0
314 4.0
315 1.0
316 1.0
317 1.0
318 1.0
319 1.0
320 1.0
321 1.0
322 1.0
323 1.0
324 1.0
325 1.0
326 1.0
327 1.0
328 1.0
329 1.0
330 1.0
331 1.0
332 1.0
333 1.0
334 1.0
335 1.0
336 1.0
337 1.0
338 1.0
339 1.0
340 1.0
341 1.0
342 1.0
343 1.0
344 1.0
345 1.0
346 1.0
347 1.0
348 1.0
349 1.0
350 1.0
351 1.0
352 1.0
353 1.0
354 1.0
355 1.0
356 1.0
357 1.0
358 1.0
359 1.0
360 1.0
361 1.0
362 1.0
363 1.0
364 1.0
365 1.0
366 1.0
0.0 # default variable primal value in starting point
13 # number of non-default variable primal values in starting point
264 2.89
265 1.2
267 1.2
269 0.6
270 0.6
271 0.8
272 0.8
273 1.7
274 1.7
275 1.3
276 1.3
277 0.5
278 0.5
0.0 # default constraint dual value in starting point
0 # number of non-default constraint dual values in starting point
0.0 # default variable bound dual value in starting point
0 # number of non-default variable bound dual values in starting point
0 # number of non-default variable names
0 # number of non-default constraint names
